
******************************************************************************
This program contains Ipopt, a library for large-scale nonlinear optimization.
 Ipopt is released as open source code under the Eclipse Public License (EPL).
         For more information visit http://projects.coin-or.org/Ipopt
******************************************************************************

This is Ipopt version 3.12.6, running with linear solver ma57.

Number of nonzeros in equality constraint Jacobian...:    34993
Number of nonzeros in inequality constraint Jacobian.:        0
Number of nonzeros in Lagrangian Hessian.............:    19998

Total number of variables............................:    10000
                     variables with only lower bounds:        0
                variables with lower and upper bounds:        0
                     variables with only upper bounds:        0
Total number of equality constraints.................:     4999
Total number of inequality constraints...............:        0
        inequality constraints with only lower bounds:        0
   inequality constraints with lower and upper bounds:        0
        inequality constraints with only upper bounds:        0

iter    objective    inf_pr   inf_du lg(mu)  ||d||  lg(rg) alpha_du alpha_pr  ls
   0  4.3329091e+06 2.90e+01 1.00e+02  -1.0 0.00e+00    -  0.00e+00 0.00e+00   0
   1  5.2175005e+05 1.00e+01 5.26e+01  -1.0 9.08e-01   2.0 1.00e+00 1.00e+00f  1
   2 -9.9535067e+05 3.24e+00 1.64e+01  -1.0 5.25e+00    -  1.00e+00 1.00e+00f  1
   3 -1.1917067e+06 9.61e-01 1.54e+01  -1.0 3.92e-01   1.5 1.00e+00 1.00e+00f  1
   4 -1.2393928e+06 2.53e+00 5.79e+01  -1.0 8.14e-01   1.0 1.00e+00 1.00e+00f  1
   5 -1.2122902e+06 5.10e+00 7.19e+01  -1.0 1.57e+00   0.6 1.00e+00 1.00e+00h  1
   6 -1.2019045e+06 6.15e-01 2.26e+01  -1.0 6.16e-01   1.0 1.00e+00 1.00e+00h  1
   7 -1.6070483e+06 1.09e-01 2.12e+03  -1.0 9.09e+00   1.4 1.00e+00 1.00e+00f  1
   8 -1.0117132e+07 1.41e-03 1.67e+04  -1.0 1.74e+01   2.7 1.00e+00 1.00e+00f  1
   9 -3.3205038e+08 1.40e-05 1.86e+05  -1.0 6.32e+01   3.2 1.00e+00 1.00e+00f  1
iter    objective    inf_pr   inf_du lg(mu)  ||d||  lg(rg) alpha_du alpha_pr  ls
  10 -4.1098329e+08 2.73e-08 2.14e+05  -1.0 6.67e+00   4.5 1.00e+00 1.00e+00f  1
  11 -1.0199673e+09 2.31e-07 3.93e+05  -1.0 3.44e+01   4.0 1.00e+00 1.00e+00f  1
  12 -1.4851569e+09 3.25e-08 5.05e+05  -1.0 1.75e+01   4.5 1.00e+00 1.00e+00f  1
  13 -1.7278890e+10 2.90e-07 2.60e+06  -1.0 1.89e+02   4.0 1.00e+00 1.00e+00f  1
  14 -9.7439754e+10 4.07e-08 8.22e+06  -1.0 2.63e+02   4.4 1.00e+00 1.00e+00f  1
  15 -2.3592877e+11 5.72e-09 1.48e+07  -1.0 2.06e+02   4.8 1.00e+00 1.00e+00f  1
  16 -3.3932727e+11 8.04e-10 1.89e+07  -1.0 1.04e+02   5.3 1.00e+00 1.00e+00f  1
  17 -3.2876594e+12 7.22e-09 8.59e+07  -1.0 1.03e+03   4.8 1.00e+00 1.00e+00f  1
  18 -1.4037652e+13 1.02e-09 2.26e+08  -1.0 1.21e+03   5.2 1.00e+00 1.00e+00f  1
  19 -2.7716516e+13 1.43e-10 3.56e+08  -1.0 8.01e+02   5.6 1.00e+00 1.00e+00f  1
iter    objective    inf_pr   inf_du lg(mu)  ||d||  lg(rg) alpha_du alpha_pr  ls
  20 -3.6321973e+13 2.01e-11 4.26e+08  -1.0 3.72e+02   6.1 1.00e+00 1.00e+00f  1
  21 -1.3365489e+14 1.81e-10 1.02e+09  -1.0 2.35e+03   5.6 1.00e+00 1.00e+00f  1
  22 -2.4029090e+14 2.54e-11 1.50e+09  -1.0 1.44e+03   6.0 1.00e+00 1.00e+00f  1
  23 -3.0247578e+14 3.57e-12 1.75e+09  -1.0 6.47e+02   6.4 1.00e+00 1.00e+00f  1
  24 -8.3309665e+14 3.21e-11 3.44e+09  -1.0 3.52e+03   6.0 1.00e+00 1.00e+00f  1
  25 -1.2766516e+15 4.52e-12 4.57e+09  -1.0 1.88e+03   6.4 1.00e+00 1.00e+00f  1
  26 -3.9200473e+16 4.07e-11 4.48e+10  -1.0 3.02e+04   5.9 1.00e+00 1.00e+00f  1
  27 -4.8502500e+19 5.72e-12 5.17e+12  -1.0 4.32e+05   6.3 1.00e+00 1.00e+00f  1
  28 -1.5064948e+20 1.15e-14 1.10e+13  -1.0 2.18e+05   7.7 1.00e+00 1.00e+00f  1
  29 -2.4589127e+20 1.78e-15 1.52e+13  -1.0 1.23e+05   8.1 1.00e+00 1.00e+00f  1
iter    objective    inf_pr   inf_du lg(mu)  ||d||  lg(rg) alpha_du alpha_pr  ls
  30 -9.0643516e+22 1.90e-14 7.84e+14  -1.0 5.04e+06   7.6 1.00e+00 1.00e+00f  1
  31 -1.6686906e+23 3.33e-15 1.18e+15  -1.0 1.32e+06   8.9 1.00e+00 1.00e+00f  1
  32 -2.1217361e+23 2.28e-15 1.38e+15  -1.0 5.99e+05   9.4 1.00e+00 1.00e+00f  1
  33 -6.2507667e+23 4.22e-15 2.84e+15  -1.0 3.37e+06   8.9 1.00e+00 1.00e+00f  1
  34 -9.9182759e+23 6.44e-15 3.86e+15  -1.0 1.86e+06   9.3 1.00e+00 1.00e+00f  1
  35 -8.7706429e+25 2.44e-15 7.67e+16  -1.0 4.50e+07   8.8 1.00e+00 1.00e+00f  1
  36 -1.2046070e+26 4.16e-15 9.47e+16  -1.0 6.47e+06  10.2 1.00e+00 1.00e+00f  1
  37 -6.7562587e+26 3.66e-15 2.99e+17  -1.0 5.01e+07   9.7 1.00e+00 1.00e+00f  1
  38 -1.6286100e+27 4.00e-15 5.38e+17  -1.0 3.90e+07  10.1 1.00e+00 1.00e+00f  1
  39 -2.3373985e+27 4.05e-15 6.84e+17  -1.0 1.97e+07  10.5 1.00e+00 1.00e+00f  1
iter    objective    inf_pr   inf_du lg(mu)  ||d||  lg(rg) alpha_du alpha_pr  ls
  40 -2.1996596e+28 3.11e-15 3.05e+18  -1.0 1.92e+08  10.1 1.00e+00 1.00e+00f  1
  41 -9.0336531e+28 7.33e-15 7.82e+18  -1.0 2.20e+08  10.5 1.00e+00 1.00e+00f  1
  42 -1.7388854e+29 4.66e-15 1.21e+19  -1.0 1.43e+08  10.9 1.00e+00 1.00e+00f  1
  43 -2.2537280e+29 2.22e-15 1.44e+19  -1.0 6.58e+07  11.3 1.00e+00 1.00e+00f  1
  44 -7.6163017e+29 3.77e-15 3.24e+19  -1.0 3.98e+08  10.9 1.00e+00 1.00e+00f  1
  45 -1.3028146e+30 4.88e-15 4.63e+19  -1.0 2.34e+08  11.3 1.00e+00 1.00e+00f  1
  46 -1.6061433e+30 1.32e-15 5.33e+19  -1.0 1.03e+08  11.7 1.00e+00 1.00e+00f  1
  47 -3.8820878e+30 6.88e-15 9.59e+19  -1.0 5.23e+08  11.2 1.00e+00 1.00e+00f  1
  48 -5.5787679e+30 6.88e-15 1.22e+20  -1.0 2.63e+08  11.7 1.00e+00 1.00e+00f  1
  49 -5.3428646e+31 2.89e-15 5.51e+20  -1.0 2.60e+09  11.2 1.00e+00 1.00e+00f  1
iter    objective    inf_pr   inf_du lg(mu)  ||d||  lg(rg) alpha_du alpha_pr  ls
  50 -2.2458993e+32 6.00e-15 1.44e+21  -1.0 3.02e+09  11.6 1.00e+00 1.00e+00f  1
  51 -4.3889837e+32 7.11e-15 2.24e+21  -1.0 1.98e+09  12.0 1.00e+00 1.00e+00f  1
  52 -5.7259135e+32 1.16e-15 2.68e+21  -1.0 9.19e+08  12.5 1.00e+00 1.00e+00f  1
  53 -2.0342236e+33 2.66e-15 6.24e+21  -1.0 5.70e+09  12.0 1.00e+00 1.00e+00f  1
  54 -3.5817263e+33 2.00e-15 9.09e+21  -1.0 3.43e+09  12.4 1.00e+00 1.00e+00f  1
  55 -4.4692393e+33 3.55e-15 1.05e+22  -1.0 1.53e+09  12.8 1.00e+00 1.00e+00f  1
  56 -1.1634014e+34 1.50e-15 1.99e+22  -1.0 8.07e+09  12.4 1.00e+00 1.00e+00f  1
  57 -1.7331196e+34 4.00e-15 2.60e+22  -1.0 4.20e+09  12.8 1.00e+00 1.00e+00f  1
  58 -2.9344598e+35 4.44e-15 1.72e+23  -1.0 5.29e+10  12.3 1.00e+00 1.00e+00f  1
  59 -3.8206408e+36 7.55e-15 9.49e+23  -1.0 1.17e+11  12.7 1.00e+00 1.00e+00f  1
iter    objective    inf_pr   inf_du lg(mu)  ||d||  lg(rg) alpha_du alpha_pr  ls
  60 -2.6407628e+37 3.83e-15 3.44e+24  -1.0 1.85e+11  13.2 1.00e+00 1.00e+00f  1
  61 -7.6588750e+37 2.22e-15 7.01e+24  -1.0 1.66e+11  13.6 1.00e+00 1.00e+00f  1
  62 -1.2053077e+38 6.44e-15 9.48e+24  -1.0 9.04e+10  14.0 1.00e+00 1.00e+00f  1
  63 -7.9234047e+39 1.72e-15 1.54e+26  -1.0 1.96e+12  13.5 1.00e+00 1.00e+00f  1
  64 -1.0459001e+40 2.50e-15 1.86e+26  -1.0 2.52e+11  14.9 1.00e+00 1.00e+00f  1
  65 -4.0801422e+40 4.22e-15 4.60e+26  -1.0 1.64e+12  14.4 1.00e+00 1.00e+00f  1
  66 -7.6021897e+40 2.50e-15 6.97e+26  -1.0 1.04e+12  14.8 1.00e+00 1.00e+00f  1
  67 -9.7159170e+40 4.66e-15 8.21e+26  -1.0 4.71e+11  15.2 1.00e+00 1.00e+00f  1
  68 -2.9661241e+41 2.22e-15 1.73e+27  -1.0 2.70e+12  14.8 1.00e+00 1.00e+00f  1
  69 -4.7964239e+41 2.22e-15 2.38e+27  -1.0 1.51e+12  15.2 1.00e+00 1.00e+00f  1
iter    objective    inf_pr   inf_du lg(mu)  ||d||  lg(rg) alpha_du alpha_pr  ls
  70 -1.0051128e+44 2.00e-15 8.40e+28  -1.0 5.05e+13  14.7 1.00e+00 1.00e+00f  1
  71 -1.6064768e+44 5.77e-15 1.15e+29  -1.0 1.03e+13  16.0 1.00e+00 1.00e+00f  1
  72 -1.9110835e+46 6.66e-15 2.78e+30  -1.0 2.78e+14  15.6 1.00e+00 1.00e+00f  1
  73 -2.7464913e+46 2.39e-15 3.54e+30  -1.0 4.48e+13  16.9 1.00e+00 1.00e+00f  1
  74 -2.6324860e+47 4.44e-15 1.60e+31  -1.0 4.43e+14  16.4 1.00e+00 1.00e+00f  1
  75 -1.1077818e+48 2.22e-15 4.16e+31  -1.0 5.14e+14  16.8 1.00e+00 1.00e+00f  1
  76 -2.1663923e+48 4.44e-15 6.50e+31  -1.0 3.38e+14  17.3 1.00e+00 1.00e+00f  1
  77 -2.8271739e+48 2.22e-15 7.77e+31  -1.0 1.57e+14  17.7 1.00e+00 1.00e+00f  1
  78 -1.0068137e+49 2.22e-15 1.81e+32  -1.0 9.73e+14  17.2 1.00e+00 1.00e+00f  1
  79 -1.7752334e+49 2.22e-15 2.64e+32  -1.0 5.86e+14  17.6 1.00e+00 1.00e+00f  1
iter    objective    inf_pr   inf_du lg(mu)  ||d||  lg(rg) alpha_du alpha_pr  ls
  80 -2.2164280e+49 2.22e-15 3.06e+32  -1.0 2.61e+14  18.1 1.00e+00 1.00e+00f  1
  81 -5.7912523e+49 2.22e-15 5.81e+32  -1.0 1.38e+15  17.6 1.00e+00 1.00e+00f  1
  82 -8.6431820e+49 2.22e-15 7.59e+32  -1.0 7.21e+14  18.0 1.00e+00 1.00e+00f  1
  83 -1.5142621e+51 2.22e-15 5.12e+33  -1.0 9.22e+15  17.5 1.00e+00 1.00e+00f  1
  84 -2.1893570e+52 2.22e-15 3.04e+34  -1.0 2.15e+16  18.0 1.00e+00 1.00e+00f  1
  85 -1.8890616e+53 2.22e-15 1.28e+35  -1.0 3.84e+16  18.4 1.00e+00 1.00e+00f  1
  86 -6.9570402e+53 2.22e-15 3.05e+35  -1.0 4.08e+16  18.8 1.00e+00 1.00e+00f  1
  87 -1.2513963e+54 2.22e-15 4.51e+35  -1.0 2.50e+16  19.2 1.00e+00 1.00e+00f  1
  88 -1.5755789e+54 2.22e-15 5.26e+35  -1.0 1.12e+16  19.7 1.00e+00 1.00e+00f  1
  89 -4.3455854e+54 2.22e-15 1.03e+36  -1.0 6.11e+16  19.2 1.00e+00 1.00e+00f  1
iter    objective    inf_pr   inf_du lg(mu)  ||d||  lg(rg) alpha_du alpha_pr  ls
  90 -6.6639544e+54 2.22e-15 1.38e+36  -1.0 3.26e+16  19.6 1.00e+00 1.00e+00f  1
  91 -2.0817267e+56 2.22e-15 1.36e+37  -1.0 5.28e+17  19.1 1.00e+00 1.00e+00f  1
  92 -4.0140603e+59 2.22e-15 2.11e+39  -1.0 8.85e+18  19.6 1.00e+00 1.00e+00f  1
WARNING: Problem in step computation; switching to emergency mode.
Restoration phase is called at point that is almost feasible,
  with constraint violation 3.136243e-13. Abort.

Number of Iterations....: 92

                                   (scaled)                 (unscaled)
Objective...............:  -6.7821112088799493e+57   -4.0140603400876870e+59
Dual infeasibility......:   2.1136303377301431e+39    1.2509732516889626e+41
Constraint violation....:   2.2204460492503131e-15    2.2204460492503131e-15
Complementarity.........:   0.0000000000000000e+00    0.0000000000000000e+00
Overall NLP error.......:   5.1086210652897108e+38    1.2509732516889626e+41


Number of objective function evaluations             = 93
Number of objective gradient evaluations             = 93
Number of equality constraint evaluations            = 93
Number of inequality constraint evaluations          = 0
Number of equality constraint Jacobian evaluations   = 93
Number of inequality constraint Jacobian evaluations = 0
Number of Lagrangian Hessian evaluations             = 93
Total CPU secs in IPOPT (w/o function evaluations)   =      1.360
Total CPU secs in NLP function evaluations           =      1.020

EXIT: Restoration Failed!

************************ CUTEst statistics ************************


 Package used            :  IPOPT
 Problem                 :  LUKVLE2   
 # variables             =           10000
 # constraints           =            4999
 # objective functions   =        0.1870000E+03
 # objective gradients   =        0.9400000E+02
 # objective Hessians    =        0.9400000E+02
 # Hessian-vector prdct  =        0.0000000E+00
 # constraints functions =        0.1880000E+03
 # constraints gradients =        0.9500000E+02
 # constraints Hessians  =        0.9400000E+02
 Exit code               =              -2
 Final f                 =  -0.4014060E+60
 Set up time             =            0.35 seconds
 Solve time              =            2.39 seconds


******************************************************************

System Time =       2.3880000114 s.
